results/res_prop_muc/res_Cimatti_mathsat_cores/QF_UF/SEQ026_size5.smt.smt2.out

real	0m10.264s
user	0m9.825s
sys	0m0.388s
