results/res_prop_muc/res_Cimatti_mathsat_cores/QF_UF/SEQ026_size5.smt.smt2.res
unsat
( _c0
  _c1
  _c10
  _c100
  _c1000
  _c1001
  _c1002
  _c1003
  _c1004
  _c1005
  _c1006
  _c1007
  _c1008
  _c1009
  _c101
  _c1010
  _c1011
  _c1016
  _c1017
  _c1018
  _c1019
  _c102
  _c1020
  _c1021
  _c1022
  _c1023
  _c1024
  _c1025
  _c1026
  _c103
  _c104
  _c105
  _c106
  _c107
  _c108
  _c109
  _c11
  _c110
  _c1109
  _c112
  _c1124
  _c113
  _c1132
  _c1135
  _c1138
  _c114
  _c1142
  _c1143
  _c115
  _c1152
  _c1153
  _c1154
  _c1155
  _c1156
  _c1157
  _c1158
  _c1159
  _c116
  _c1160
  _c1161
  _c1162
  _c1163
  _c1164
  _c1165
  _c1166
  _c1167
  _c1168
  _c1169
  _c117
  _c1170
  _c1171
  _c1172
  _c1173
  _c1174
  _c1175
  _c1176
  _c1177
  _c1178
  _c1179
  _c118
  _c1180
  _c1181
  _c119
  _c12
  _c120
  _c121
  _c122
  _c123
  _c125
  _c126
  _c127
  _c128
  _c129
  _c13
  _c130
  _c1307
  _c131
  _c1312
  _c132
  _c1325
  _c1329
  _c133
  _c1331
  _c1332
  _c1333
  _c1334
  _c1335
  _c1336
  _c1338
  _c1339
  _c134
  _c1340
  _c1341
  _c1344
  _c1346
  _c1348
  _c1349
  _c135
  _c1350
  _c1352
  _c1353
  _c1355
  _c1356
  _c136
  _c137
  _c138
  _c1382
  _c1383
  _c1384
  _c1385
  _c1386
  _c1387
  _c1388
  _c1389
  _c139
  _c1390
  _c1391
  _c1392
  _c1393
  _c1394
  _c1395
  _c1396
  _c1397
  _c1398
  _c14
  _c140
  _c141
  _c142
  _c143
  _c144
  _c145
  _c146
  _c147
  _c148
  _c149
  _c15
  _c150
  _c151
  _c152
  _c153
  _c154
  _c155
  _c156
  _c157
  _c159
  _c16
  _c160
  _c161
  _c162
  _c163
  _c164
  _c165
  _c166
  _c167
  _c168
  _c169
  _c17
  _c170
  _c172
  _c173
  _c174
  _c176
  _c177
  _c178
  _c179
  _c18
  _c180
  _c181
  _c182
  _c183
  _c184
  _c185
  _c186
  _c187
  _c188
  _c189
  _c19
  _c190
  _c191
  _c192
  _c193
  _c194
  _c195
  _c196
  _c197
  _c198
  _c199
  _c2
  _c20
  _c200
  _c201
  _c202
  _c203
  _c204
  _c205
  _c206
  _c207
  _c208
  _c209
  _c21
  _c210
  _c212
  _c213
  _c214
  _c215
  _c216
  _c217
  _c218
  _c219
  _c22
  _c220
  _c221
  _c222
  _c223
  _c224
  _c226
  _c227
  _c228
  _c229
  _c23
  _c230
  _c231
  _c232
  _c233
  _c234
  _c235
  _c237
  _c238
  _c24
  _c240
  _c242
  _c243
  _c244
  _c246
  _c247
  _c248
  _c249
  _c25
  _c250
  _c251
  _c252
  _c253
  _c254
  _c255
  _c257
  _c258
  _c259
  _c26
  _c260
  _c261
  _c262
  _c263
  _c264
  _c265
  _c266
  _c267
  _c268
  _c269
  _c27
  _c270
  _c272
  _c273
  _c274
  _c275
  _c276
  _c277
  _c278
  _c279
  _c28
  _c280
  _c281
  _c282
  _c283
  _c284
  _c286
  _c287
  _c288
  _c289
  _c29
  _c290
  _c291
  _c292
  _c293
  _c294
  _c295
  _c296
  _c297
  _c298
  _c299
  _c3
  _c30
  _c300
  _c301
  _c303
  _c304
  _c305
  _c306
  _c307
  _c308
  _c309
  _c31
  _c310
  _c311
  _c312
  _c313
  _c314
  _c315
  _c317
  _c318
  _c319
  _c32
  _c320
  _c321
  _c322
  _c323
  _c327
  _c33
  _c330
  _c331
  _c336
  _c337
  _c338
  _c339
  _c34
  _c340
  _c341
  _c342
  _c343
  _c344
  _c345
  _c347
  _c349
  _c35
  _c350
  _c351
  _c353
  _c354
  _c355
  _c356
  _c357
  _c358
  _c36
  _c361
  _c363
  _c364
  _c365
  _c366
  _c367
  _c368
  _c369
  _c37
  _c370
  _c371
  _c372
  _c373
  _c374
  _c375
  _c376
  _c377
  _c378
  _c379
  _c38
  _c380
  _c381
  _c382
  _c383
  _c384
  _c385
  _c386
  _c387
  _c388
  _c389
  _c39
  _c390
  _c391
  _c392
  _c393
  _c394
  _c395
  _c396
  _c397
  _c398
  _c399
  _c4
  _c40
  _c400
  _c401
  _c402
  _c403
  _c404
  _c405
  _c406
  _c407
  _c409
  _c41
  _c410
  _c411
  _c414
  _c415
  _c416
  _c417
  _c419
  _c42
  _c420
  _c421
  _c423
  _c424
  _c425
  _c426
  _c427
  _c428
  _c43
  _c430
  _c431
  _c432
  _c433
  _c434
  _c435
  _c437
  _c438
  _c439
  _c44
  _c440
  _c442
  _c443
  _c444
  _c445
  _c446
  _c447
  _c448
  _c449
  _c45
  _c450
  _c452
  _c454
  _c455
  _c456
  _c457
  _c458
  _c459
  _c46
  _c461
  _c462
  _c463
  _c464
  _c466
  _c468
  _c469
  _c47
  _c470
  _c471
  _c472
  _c473
  _c474
  _c475
  _c476
  _c477
  _c478
  _c479
  _c48
  _c480
  _c481
  _c482
  _c484
  _c485
  _c486
  _c488
  _c489
  _c49
  _c491
  _c492
  _c494
  _c495
  _c496
  _c497
  _c498
  _c499
  _c5
  _c50
  _c500
  _c501
  _c502
  _c503
  _c504
  _c505
  _c506
  _c507
  _c508
  _c509
  _c510
  _c511
  _c512
  _c513
  _c514
  _c516
  _c517
  _c518
  _c519
  _c520
  _c521
  _c522
  _c523
  _c524
  _c525
  _c526
  _c527
  _c528
  _c529
  _c530
  _c531
  _c533
  _c534
  _c535
  _c536
  _c537
  _c538
  _c539
  _c540
  _c541
  _c542
  _c543
  _c544
  _c545
  _c547
  _c548
  _c549
  _c550
  _c551
  _c552
  _c553
  _c554
  _c555
  _c558
  _c559
  _c56
  _c560
  _c562
  _c563
  _c564
  _c565
  _c566
  _c567
  _c568
  _c569
  _c57
  _c570
  _c571
  _c572
  _c573
  _c574
  _c575
  _c576
  _c577
  _c578
  _c579
  _c58
  _c580
  _c582
  _c583
  _c584
  _c585
  _c586
  _c587
  _c588
  _c589
  _c59
  _c590
  _c591
  _c592
  _c593
  _c594
  _c595
  _c596
  _c597
  _c598
  _c599
  _c6
  _c60
  _c600
  _c601
  _c602
  _c603
  _c604
  _c605
  _c606
  _c607
  _c608
  _c609
  _c61
  _c610
  _c611
  _c612
  _c613
  _c614
  _c615
  _c616
  _c617
  _c618
  _c619
  _c620
  _c621
  _c622
  _c623
  _c624
  _c625
  _c626
  _c627
  _c628
  _c629
  _c63
  _c630
  _c631
  _c632
  _c633
  _c634
  _c635
  _c636
  _c637
  _c638
  _c639
  _c64
  _c640
  _c641
  _c642
  _c643
  _c644
  _c645
  _c65
  _c653
  _c656
  _c66
  _c668
  _c669
  _c671
  _c672
  _c673
  _c674
  _c675
  _c69
  _c690
  _c7
  _c70
  _c701
  _c702
  _c703
  _c704
  _c705
  _c71
  _c713
  _c715
  _c720
  _c722
  _c724
  _c730
  _c731
  _c732
  _c733
  _c734
  _c735
  _c739
  _c741
  _c75
  _c752
  _c755
  _c76
  _c760
  _c761
  _c762
  _c763
  _c764
  _c765
  _c766
  _c767
  _c769
  _c77
  _c771
  _c773
  _c776
  _c777
  _c779
  _c78
  _c780
  _c781
  _c782
  _c783
  _c784
  _c785
  _c786
  _c787
  _c788
  _c79
  _c791
  _c792
  _c793
  _c794
  _c795
  _c796
  _c798
  _c799
  _c8
  _c80
  _c800
  _c801
  _c803
  _c804
  _c805
  _c806
  _c807
  _c808
  _c811
  _c812
  _c813
  _c814
  _c816
  _c817
  _c818
  _c819
  _c82
  _c820
  _c821
  _c823
  _c825
  _c826
  _c827
  _c83
  _c835
  _c836
  _c838
  _c839
  _c84
  _c840
  _c841
  _c843
  _c844
  _c846
  _c847
  _c848
  _c85
  _c850
  _c852
  _c854
  _c855
  _c856
  _c857
  _c858
  _c86
  _c861
  _c862
  _c864
  _c87
  _c871
  _c873
  _c874
  _c875
  _c876
  _c878
  _c879
  _c88
  _c880
  _c881
  _c882
  _c883
  _c885
  _c886
  _c89
  _c891
  _c892
  _c897
  _c898
  _c899
  _c9
  _c90
  _c900
  _c901
  _c902
  _c904
  _c906
  _c91
  _c910
  _c911
  _c915
  _c916
  _c917
  _c918
  _c92
  _c923
  _c928
  _c929
  _c933
  _c935
  _c938
  _c94
  _c942
  _c947
  _c948
  _c949
  _c95
  _c950
  _c953
  _c954
  _c96
  _c960
  _c966
  _c967
  _c968
  _c97
  _c970
  _c972
  _c973
  _c974
  _c975
  _c976
  _c977
  _c978
  _c979
  _c980
  _c981
  _c983
  _c985
  _c986
  _c991
  _c992
  _c997
  _c998 )
